
n_res = 4;
rcap = [26, 32, 1827, 1702];
rtype = [1, 1, 2, 2];
n_tasks = 100;
modes =  [{1, 2, 3, 4, 5, 6, 7, 8, 9}, {10, 11, 12, 13, 14, 15, 16, 17, 18}, {19, 20, 21, 22, 23, 24, 25, 26, 27}, {28, 29, 30, 31, 32, 33, 34, 35, 36}, {37, 38, 39, 40, 41, 42, 43, 44, 45}, {46, 47, 48, 49, 50, 51, 52, 53, 54}, {55, 56, 57, 58, 59, 60, 61, 62, 63}, {64, 65, 66, 67, 68, 69, 70, 71, 72}, {73, 74, 75, 76, 77, 78, 79, 80, 81}, {82, 83, 84, 85, 86, 87, 88, 89, 90}, {91, 92, 93, 94, 95, 96, 97, 98, 99}, {100, 101, 102, 103, 104, 105, 106, 107, 108}, {109, 110, 111, 112, 113, 114, 115, 116, 117}, {118, 119, 120, 121, 122, 123, 124, 125, 126}, {127, 128, 129, 130, 131, 132, 133, 134, 135}, {136, 137, 138, 139, 140, 141, 142, 143, 144}, {145, 146, 147, 148, 149, 150, 151, 152, 153}, {154, 155, 156, 157, 158, 159, 160, 161, 162}, {163, 164, 165, 166, 167, 168, 169, 170, 171}, {172, 173, 174, 175, 176, 177, 178, 179, 180}, {181, 182, 183, 184, 185, 186, 187, 188, 189}, {190, 191, 192, 193, 194, 195, 196, 197, 198}, {199, 200, 201, 202, 203, 204, 205, 206, 207}, {208, 209, 210, 211, 212, 213, 214, 215, 216}, {217, 218, 219, 220, 221, 222, 223, 224, 225}, {226, 227, 228, 229, 230, 231, 232, 233, 234}, {235, 236, 237, 238, 239, 240, 241, 242, 243}, {244, 245, 246, 247, 248, 249, 250, 251, 252}, {253, 254, 255, 256, 257, 258, 259, 260, 261}, {262, 263, 264, 265, 266, 267, 268, 269, 270}, {271, 272, 273, 274, 275, 276, 277, 278, 279}, {280, 281, 282, 283, 284, 285, 286, 287, 288}, {289, 290, 291, 292, 293, 294, 295, 296, 297}, {298, 299, 300, 301, 302, 303, 304, 305, 306}, {307, 308, 309, 310, 311, 312, 313, 314, 315}, {316, 317, 318, 319, 320, 321, 322, 323, 324}, {325, 326, 327, 328, 329, 330, 331, 332, 333}, {334, 335, 336, 337, 338, 339, 340, 341, 342}, {343, 344, 345, 346, 347, 348, 349, 350, 351}, {352, 353, 354, 355, 356, 357, 358, 359, 360}, {361, 362, 363, 364, 365, 366, 367, 368, 369}, {370, 371, 372, 373, 374, 375, 376, 377, 378}, {379, 380, 381, 382, 383, 384, 385, 386, 387}, {388, 389, 390, 391, 392, 393, 394, 395, 396}, {397, 398, 399, 400, 401, 402, 403, 404, 405}, {406, 407, 408, 409, 410, 411, 412, 413, 414}, {415, 416, 417, 418, 419, 420, 421, 422, 423}, {424, 425, 426, 427, 428, 429, 430, 431, 432}, {433, 434, 435, 436, 437, 438, 439, 440, 441}, {442, 443, 444, 445, 446, 447, 448, 449, 450}, {451, 452, 453, 454, 455, 456, 457, 458, 459}, {460, 461, 462, 463, 464, 465, 466, 467, 468}, {469, 470, 471, 472, 473, 474, 475, 476, 477}, {478, 479, 480, 481, 482, 483, 484, 485, 486}, {487, 488, 489, 490, 491, 492, 493, 494, 495}, {496, 497, 498, 499, 500, 501, 502, 503, 504}, {505, 506, 507, 508, 509, 510, 511, 512, 513}, {514, 515, 516, 517, 518, 519, 520, 521, 522}, {523, 524, 525, 526, 527, 528, 529, 530, 531}, {532, 533, 534, 535, 536, 537, 538, 539, 540}, {541, 542, 543, 544, 545, 546, 547, 548, 549}, {550, 551, 552, 553, 554, 555, 556, 557, 558}, {559, 560, 561, 562, 563, 564, 565, 566, 567}, {568, 569, 570, 571, 572, 573, 574, 575, 576}, {577, 578, 579, 580, 581, 582, 583, 584, 585}, {586, 587, 588, 589, 590, 591, 592, 593, 594}, {595, 596, 597, 598, 599, 600, 601, 602, 603}, {604, 605, 606, 607, 608, 609, 610, 611, 612}, {613, 614, 615, 616, 617, 618, 619, 620, 621}, {622, 623, 624, 625, 626, 627, 628, 629, 630}, {631, 632, 633, 634, 635, 636, 637, 638, 639}, {640, 641, 642, 643, 644, 645, 646, 647, 648}, {649, 650, 651, 652, 653, 654, 655, 656, 657}, {658, 659, 660, 661, 662, 663, 664, 665, 666}, {667, 668, 669, 670, 671, 672, 673, 674, 675}, {676, 677, 678, 679, 680, 681, 682, 683, 684}, {685, 686, 687, 688, 689, 690, 691, 692, 693}, {694, 695, 696, 697, 698, 699, 700, 701, 702}, {703, 704, 705, 706, 707, 708, 709, 710, 711}, {712, 713, 714, 715, 716, 717, 718, 719, 720}, {721, 722, 723, 724, 725, 726, 727, 728, 729}, {730, 731, 732, 733, 734, 735, 736, 737, 738}, {739, 740, 741, 742, 743, 744, 745, 746, 747}, {748, 749, 750, 751, 752, 753, 754, 755, 756}, {757, 758, 759, 760, 761, 762, 763, 764, 765}, {766, 767, 768, 769, 770, 771, 772, 773, 774}, {775, 776, 777, 778, 779, 780, 781, 782, 783}, {784, 785, 786, 787, 788, 789, 790, 791, 792}, {793, 794, 795, 796, 797, 798, 799, 800, 801}, {802, 803, 804, 805, 806, 807, 808, 809, 810}, {811, 812, 813, 814, 815, 816, 817, 818, 819}, {820, 821, 822, 823, 824, 825, 826, 827, 828}, {829, 830, 831, 832, 833, 834, 835, 836, 837}, {838, 839, 840, 841, 842, 843, 844, 845, 846}, {847, 848, 849, 850, 851, 852, 853, 854, 855}, {856, 857, 858, 859, 860, 861, 862, 863, 864}, {865, 866, 867, 868, 869, 870, 871, 872, 873}, {874, 875, 876, 877, 878, 879, 880, 881, 882}, {883, 884, 885, 886, 887, 888, 889, 890, 891}, {892, 893, 894, 895, 896, 897, 898, 899, 900}];
succ =  [{27, 21, 18, 17, 16, 15, 13, 11, 10}, {27, 18, 17, 16, 15, 14, 13}, {33, 27, 17, 15, 13, 11}, {33, 28, 27, 26, 18, 8}, {27, 17, 15, 10}, {33, 28, 21, 19, 15, 11}, {33, 26, 24, 23, 15}, {30, 23, 21, 15}, {33, 23, 21, 19}, {33, 25, 19}, {32, 30, 26, 25, 23, 22}, {42, 35, 28, 25, 24, 21}, {36, 23, 19}, {36, 33, 30, 29, 26, 24}, {40, 34, 32, 25, 22}, {42, 36, 35, 32, 31, 29, 23}, {35, 32, 31, 28, 23}, {40, 36, 34, 24, 22}, {35, 30, 26, 24}, {42, 41, 40, 33, 32, 29}, {50, 45, 44, 41, 40, 36, 32, 31}, {52, 49, 45, 44, 43, 42, 41, 38, 35}, {49, 45, 43, 41, 40, 39, 37, 34}, {50, 44, 41, 32, 31}, {50, 36, 31, 29}, {49, 43, 42, 40, 39, 37, 34}, {49, 48, 41, 38, 37, 36, 34}, {52, 50, 40, 36, 30}, {52, 49, 45, 44, 43, 39, 37}, {62, 57, 53, 49, 46, 45, 43, 37}, {66, 53, 52, 51, 49, 43, 39}, {53, 49, 48, 38, 37}, {57, 53, 52, 51, 50, 48, 39}, {66, 62, 57, 55, 54, 52, 51, 50, 44}, {66, 53, 51, 50, 48, 39}, {57, 51, 46, 39}, {66, 63, 59, 58, 56, 54, 51, 47}, {66, 65, 63, 62, 61, 60, 59, 58, 57, 56, 54}, {63, 62, 59, 58, 56, 54, 47}, {66, 62, 60, 59, 58, 57, 55, 54}, {63, 62, 61, 58, 56, 54, 51}, {62, 60, 58, 56, 55, 53}, {67, 63, 56, 55, 48}, {61, 53, 46}, {73, 65, 60, 59, 55}, {78, 72, 64, 63, 59, 56}, {68, 67, 65, 60, 55}, {65, 61, 60, 58}, {72, 67, 61, 58, 56}, {77, 73, 72, 68, 67, 65, 61}, {82, 79, 73, 68, 65, 60}, {78, 75, 72, 64, 59}, {82, 78, 73, 72, 71, 70, 67, 65}, {85, 82, 78, 77, 72, 71, 67, 64}, {79, 77, 75, 72, 61}, {85, 82, 81, 80, 79, 77, 75, 73, 69, 68}, {85, 82, 81, 80, 79, 78, 77, 76, 73, 68}, {85, 82, 80, 79, 78, 73, 69, 68}, {82, 77, 70, 68, 67}, {80, 78, 77, 70, 64}, {85, 82, 81, 80, 78, 74, 71, 69}, {85, 82, 81, 80, 77, 74, 73, 69}, {85, 83, 82, 79, 76, 75}, {99, 81, 74, 69}, {81, 75, 69}, {100, 99, 88, 85, 83, 80, 74}, {99, 84, 83, 81, 80, 79}, {83, 74, 71}, {98, 88, 86, 83, 76}, {88, 85, 83, 74}, {100, 99, 98, 93, 92, 91, 88, 87, 86, 84}, {100, 99, 98, 91, 88, 87, 86, 84}, {100, 99, 92, 91, 88, 86, 84}, {98, 93, 91, 87, 86, 84}, {99, 98, 93, 92, 90, 88, 86}, {100, 92, 91, 87, 84}, {99, 98, 93, 91, 84}, {93, 92, 88, 87, 84}, {100, 92, 91, 88, 86}, {96, 91, 90, 86}, {98, 97, 89, 87}, {99, 97, 90, 88}, {96, 94, 93, 92}, {97, 90, 89}, {96, 95, 94}, {95, 94}, {95, 94}, {89}, {96}, {94}, {97}, {95}, {95}, {}, {}, {}, {}, {}, {}, {}];
n_opt = 900;
dur = [2, 5, 8, 11, 13, 15, 16, 17, 24, 5, 7, 10, 12, 15, 18, 19, 25, 28, 2, 3, 6, 7, 10, 16, 19, 29, 30, 5, 7, 14, 20, 21, 25, 26, 28, 29, 15, 19, 20, 21, 22, 23, 26, 27, 28, 4, 6, 10, 11, 14, 20, 25, 26, 27, 2, 3, 14, 15, 23, 24, 26, 27, 28, 1, 3, 13, 14, 18, 19, 20, 28, 29, 4, 5, 6, 10, 12, 16, 19, 24, 27, 3, 6, 16, 18, 21, 22, 27, 28, 30, 5, 14, 15, 18, 22, 23, 24, 26, 30, 2, 7, 10, 15, 24, 25, 26, 27, 28, 2, 3, 7, 9, 19, 21, 23, 24, 27, 5, 10, 11, 12, 16, 17, 22, 23, 30, 2, 6, 11, 12, 15, 21, 22, 23, 27, 10, 11, 12, 13, 14, 16, 17, 21, 25, 5, 6, 8, 12, 13, 14, 15, 16, 27, 2, 3, 8, 9, 10, 15, 17, 23, 29, 3, 5, 8, 9, 11, 13, 14, 18, 20, 8, 12, 13, 14, 19, 21, 22, 25, 27, 2, 3, 5, 10, 11, 12, 14, 17, 18, 2, 3, 6, 11, 13, 17, 22, 24, 25, 2, 4, 6, 12, 14, 17, 19, 21, 29, 5, 14, 15, 16, 20, 24, 25, 27, 28, 4, 6, 7, 10, 14, 23, 24, 25, 30, 1, 2, 7, 10, 11, 12, 13, 23, 29, 8, 10, 16, 22, 25, 27, 28, 29, 30, 1, 5, 9, 10, 11, 14, 17, 18, 25, 10, 11, 12, 18, 19, 20, 26, 28, 30, 2, 3, 4, 5, 6, 7, 21, 29, 30, 2, 8, 9, 10, 11, 12, 21, 28, 30, 1, 5, 8, 10, 11, 18, 23, 24, 26, 5, 6, 8, 12, 17, 18, 21, 25, 30, 4, 5, 6, 8, 9, 15, 24, 28, 30, 4, 13, 14, 19, 23, 25, 27, 29, 30, 4, 6, 7, 16, 20, 23, 24, 26, 28, 1, 4, 5, 6, 7, 17, 18, 19, 20, 4, 6, 13, 17, 18, 25, 26, 27, 29, 5, 6, 7, 8, 9, 11, 14, 21, 29, 3, 5, 6, 9, 15, 17, 24, 25, 30, 2, 4, 12, 20, 21, 23, 26, 28, 30, 4, 5, 8, 11, 15, 18, 22, 29, 30, 7, 10, 12, 20, 25, 25, 26, 27, 29, 1, 6, 10, 11, 19, 22, 25, 26, 30, 2, 5, 7, 10, 15, 20, 22, 24, 25, 1, 4, 9, 10, 11, 18, 19, 20, 22, 2, 3, 4, 5, 13, 14, 22, 26, 29, 6, 8, 10, 13, 16, 22, 24, 25, 26, 1, 9, 11, 13, 14, 24, 25, 26, 29, 5, 9, 10, 15, 16, 20, 21, 24, 29, 1, 2, 9, 10, 11, 15, 20, 21, 30, 2, 3, 4, 5, 13, 21, 22, 26, 29, 5, 6, 11, 13, 14, 15, 17, 26, 28, 6, 7, 8, 15, 17, 20, 22, 24, 30, 2, 13, 14, 20, 21, 22, 23, 24, 25, 7, 8, 9, 10, 11, 15, 17, 22, 24, 2, 3, 7, 10, 13, 16, 17, 23, 26, 1, 2, 3, 4, 18, 22, 25, 26, 30, 6, 8, 10, 13, 18, 23, 25, 27, 28, 2, 3, 4, 7, 10, 19, 25, 26, 30, 6, 7, 8, 10, 12, 13, 17, 19, 21, 1, 6, 7, 14, 15, 17, 18, 29, 30, 3, 4, 12, 16, 17, 24, 27, 28, 29, 1, 2, 3, 4, 5, 9, 22, 25, 26, 8, 10, 11, 13, 14, 16, 23, 26, 27, 9, 12, 13, 14, 16, 20, 21, 27, 28, 2, 5, 10, 12, 17, 23, 24, 27, 28, 5, 6, 7, 8, 9, 14, 21, 22, 28, 10, 14, 15, 18, 19, 20, 21, 28, 29, 2, 3, 6, 7, 16, 20, 25, 29, 30, 3, 18, 21, 22, 24, 25, 28, 29, 30, 3, 4, 5, 7, 12, 15, 17, 21, 26, 1, 6, 9, 15, 22, 24, 25, 27, 28, 1, 7, 10, 12, 14, 20, 23, 25, 28, 3, 7, 10, 14, 17, 18, 19, 22, 30, 1, 2, 3, 4, 5, 15, 17, 21, 27, 3, 11, 12, 13, 14, 15, 21, 26, 27, 2, 7, 9, 12, 16, 17, 22, 23, 25, 1, 2, 6, 7, 9, 13, 21, 24, 28, 7, 8, 13, 14, 15, 17, 20, 25, 26, 2, 5, 8, 10, 13, 18, 22, 25, 28, 1, 6, 8, 9, 13, 20, 21, 23, 27, 4, 9, 10, 15, 20, 22, 23, 24, 28, 7, 8, 9, 12, 14, 16, 21, 26, 29, 3, 13, 17, 21, 22, 24, 25, 27, 28, 2, 3, 11, 13, 14, 15, 16, 23, 25, 1, 6, 8, 11, 13, 21, 24, 26, 27, 6, 7, 8, 10, 11, 12, 14, 21, 29, 3, 4, 6, 11, 18, 22, 23, 24, 25, 1, 5, 6, 9, 10, 17, 19, 27, 29, 3, 5, 6, 8, 11, 17, 18, 28, 30, 2, 5, 7, 11, 13, 14, 16, 25, 27, 1, 2, 3, 7, 13, 15, 23, 24, 29, 2, 11, 12, 14, 19, 20, 23, 26, 30, 4, 5, 7, 10, 11, 18, 21, 22, 28, 5, 10, 18, 19, 21, 22, 27, 28, 30, 2, 9, 11, 12, 14, 17, 18, 21, 30, 1, 8, 9, 10, 14, 16, 24, 27, 28, 9, 12, 13, 16, 17, 18, 20, 22, 28, 3, 7, 13, 17, 22, 23, 24, 25, 26];
rreq = [|2, 1, 1, 1, 1, 1, 1, 1, 1, 3, 3, 3, 3, 3, 3, 3, 3, 3, 3, 2, 2, 2, 1, 1, 1, 1, 1, 5, 4, 4, 4, 4, 3, 3, 3, 3, 4, 4, 4, 3, 2, 2, 1, 1, 1, 3, 2, 2, 2, 2, 1, 1, 1, 1, 1, 1, 1, 1, 1, 1, 1, 1, 1, 3, 3, 3, 3, 2, 2, 1, 1, 1, 5, 4, 4, 4, 3, 3, 3, 3, 3, 4, 4, 4, 3, 3, 2, 1, 1, 1, 1, 1, 1, 1, 1, 1, 1, 1, 1, 3, 3, 3, 3, 3, 3, 3, 3, 3, 5, 4, 3, 3, 3, 2, 1, 1, 1, 4, 3, 3, 3, 2, 2, 1, 1, 1, 2, 1, 1, 1, 1, 1, 1, 1, 1, 3, 2, 2, 2, 2, 2, 2, 2, 2, 4, 4, 4, 4, 3, 3, 3, 2, 2, 3, 3, 3, 3, 3, 3, 3, 3, 3, 1, 1, 1, 1, 1, 1, 1, 1, 1, 4, 3, 3, 3, 2, 2, 2, 2, 2, 1, 1, 1, 1, 1, 1, 1, 1, 1, 4, 3, 3, 3, 3, 3, 3, 3, 3, 5, 4, 4, 4, 4, 4, 4, 4, 4, 4, 3, 3, 3, 3, 3, 3, 3, 3, 4, 4, 4, 4, 3, 3, 3, 3, 3, 4, 4, 4, 4, 4, 3, 3, 3, 3, 5, 5, 5, 5, 5, 5, 5, 5, 5, 3, 2, 2, 2, 2, 2, 2, 2, 2, 5, 4, 4, 4, 4, 4, 4, 4, 4, 3, 3, 3, 3, 3, 3, 3, 3, 3, 5, 4, 4, 3, 2, 2, 1, 1, 1, 4, 3, 3, 3, 3, 3, 3, 3, 3, 3, 3, 3, 3, 2, 2, 2, 2, 2, 2, 2, 2, 2, 2, 2, 2, 2, 2, 4, 4, 4, 3, 2, 2, 2, 1, 1, 5, 4, 4, 4, 3, 3, 2, 2, 2, 5, 4, 4, 4, 4, 4, 4, 4, 4, 1, 1, 1, 1, 1, 1, 1, 1, 1, 4, 4, 4, 4, 4, 4, 4, 4, 4, 2, 2, 2, 2, 2, 1, 1, 1, 1, 4, 4, 4, 4, 4, 4, 4, 4, 4, 4, 3, 3, 3, 2, 2, 2, 2, 2, 4, 4, 4, 4, 4, 3, 3, 3, 3, 1, 1, 1, 1, 1, 1, 1, 1, 1, 3, 3, 3, 3, 3, 3, 3, 3, 3, 5, 4, 4, 3, 2, 2, 2, 1, 1, 4, 3, 3, 3, 3, 3, 3, 3, 3, 1, 1, 1, 1, 1, 1, 1, 1, 1, 5, 4, 4, 4, 4, 3, 3, 3, 3, 2, 2, 2, 2, 1, 1, 1, 1, 1, 4, 3, 3, 3, 2, 2, 2, 2, 2, 1, 1, 1, 1, 1, 1, 1, 1, 1, 3, 3, 3, 3, 3, 3, 3, 3, 3, 1, 1, 1, 1, 1, 1, 1, 1, 1, 4, 4, 4, 4, 4, 4, 4, 4, 4, 4, 4, 4, 4, 4, 4, 4, 4, 4, 3, 2, 2, 2, 1, 1, 1, 1, 1, 5, 4, 4, 4, 4, 4, 4, 4, 4, 3, 3, 3, 3, 2, 2, 2, 2, 2, 2, 2, 2, 2, 2, 2, 2, 2, 2, 3, 2, 2, 2, 1, 1, 1, 1, 1, 5, 5, 5, 5, 5, 5, 5, 5, 5, 4, 4, 4, 4, 4, 4, 4, 4, 4, 2, 1, 1, 1, 1, 1, 1, 1, 1, 2, 1, 1, 1, 1, 1, 1, 1, 1, 5, 4, 3, 3, 2, 2, 1, 1, 1, 3, 3, 3, 3, 3, 3, 3, 3, 3, 4, 4, 4, 4, 3, 3, 2, 2, 2, 5, 4, 4, 4, 4, 3, 3, 3, 3, 2, 2, 2, 2, 2, 2, 2, 2, 2, 2, 1, 1, 1, 1, 1, 1, 1, 1, 2, 2, 2, 2, 2, 2, 2, 2, 2, 4, 4, 4, 4, 3, 3, 3, 2, 2, 1, 1, 1, 1, 1, 1, 1, 1, 1, 3, 3, 3, 3, 3, 3, 3, 3, 3, 2, 2, 2, 2, 2, 2, 2, 2, 2, 5, 4, 4, 3, 3, 3, 2, 2, 2, 3, 3, 3, 3, 3, 3, 3, 3, 3, 5, 4, 4, 4, 4, 4, 4, 4, 4, 4, 4, 4, 4, 3, 3, 3, 3, 3, 2, 2, 2, 2, 2, 2, 2, 2, 2, 2, 2, 2, 2, 2, 2, 2, 2, 2, 3, 2, 2, 2, 1, 1, 1, 1, 1, 2, 1, 1, 1, 1, 1, 1, 1, 1, 1, 1, 1, 1, 1, 1, 1, 1, 1, 2, 2, 2, 2, 2, 2, 2, 2, 2, 3, 3, 3, 3, 3, 2, 2, 2, 2, 5, 4, 4, 4, 4, 4, 4, 4, 4, 3, 3, 3, 3, 3, 3, 3, 3, 3, 3, 3, 3, 3, 3, 2, 2, 2, 2, 2, 2, 2, 2, 2, 2, 2, 2, 2, 2, 2, 2, 2, 2, 2, 2, 2, 2, 4, 4, 4, 3, 3, 3, 2, 2, 2, 3, 3, 3, 3, 2, 2, 2, 2, 2, 4, 3, 3, 3, 3, 3, 3, 3, 3, 2, 2, 2, 2, 2, 2, 2, 2, 2, 2, 2, 2, 2, 2, 2, 2, 2, 2, 4, 4, 4, 4, 4, 4, 4, 4, 4, 2, 2, 2, 2, 1, 1, 1, 1, 1, 3, 3, 3, 3, 3, 3, 3, 3, 3
 |4, 3, 3, 3, 3, 2, 2, 2, 2, 5, 5, 5, 5, 5, 5, 5, 5, 5, 4, 3, 3, 3, 3, 3, 3, 3, 3, 4, 3, 3, 3, 3, 3, 3, 3, 3, 4, 4, 4, 4, 4, 3, 3, 3, 3, 2, 1, 1, 1, 1, 1, 1, 1, 1, 4, 4, 4, 4, 4, 3, 3, 3, 3, 3, 3, 3, 3, 3, 3, 3, 3, 3, 5, 5, 5, 5, 5, 5, 5, 5, 5, 4, 4, 3, 3, 2, 2, 2, 1, 1, 4, 3, 3, 2, 2, 2, 2, 1, 1, 5, 4, 4, 4, 3, 3, 3, 3, 3, 5, 5, 5, 5, 5, 5, 5, 5, 5, 3, 3, 3, 3, 3, 2, 2, 2, 2, 2, 2, 2, 2, 2, 2, 2, 2, 2, 3, 3, 3, 3, 3, 3, 3, 3, 3, 3, 3, 3, 3, 3, 2, 2, 2, 2, 3, 3, 3, 3, 3, 3, 3, 3, 3, 3, 3, 3, 3, 3, 3, 3, 3, 3, 4, 3, 3, 3, 2, 2, 2, 1, 1, 5, 4, 4, 4, 3, 3, 3, 3, 3, 4, 4, 4, 4, 4, 4, 4, 4, 4, 4, 4, 4, 4, 4, 3, 3, 3, 3, 1, 1, 1, 1, 1, 1, 1, 1, 1, 5, 5, 5, 5, 5, 5, 5, 5, 5, 5, 4, 4, 4, 3, 3, 2, 2, 2, 3, 3, 3, 2, 2, 2, 2, 1, 1, 2, 1, 1, 1, 1, 1, 1, 1, 1, 4, 4, 3, 3, 2, 2, 1, 1, 1, 5, 4, 4, 4, 3, 3, 2, 2, 2, 4, 3, 3, 3, 2, 2, 1, 1, 1, 3, 3, 3, 2, 2, 2, 2, 1, 1, 3, 2, 2, 2, 2, 1, 1, 1, 1, 2, 2, 2, 2, 2, 2, 2, 2, 2, 5, 5, 5, 5, 5, 5, 5, 5, 5, 4, 4, 4, 3, 3, 3, 2, 2, 2, 3, 3, 3, 3, 3, 3, 3, 3, 3, 4, 3, 3, 3, 3, 2, 2, 2, 2, 5, 4, 4, 3, 2, 2, 1, 1, 1, 5, 4, 3, 3, 2, 2, 1, 1, 1, 3, 2, 2, 2, 1, 1, 1, 1, 1, 3, 3, 3, 3, 3, 2, 2, 2, 2, 4, 4, 4, 4, 4, 4, 4, 4, 4, 4, 4, 4, 4, 3, 3, 3, 3, 3, 5, 5, 5, 5, 5, 5, 5, 5, 5, 4, 3, 3, 2, 2, 2, 1, 1, 1, 4, 4, 4, 4, 3, 3, 2, 2, 2, 4, 4, 4, 4, 3, 3, 3, 2, 2, 4, 3, 3, 2, 2, 2, 1, 1, 1, 4, 4, 3, 3, 3, 2, 1, 1, 1, 5, 4, 4, 4, 4, 4, 4, 4, 4, 4, 3, 3, 3, 3, 2, 2, 2, 2, 4, 4, 4, 4, 4, 4, 4, 4, 4, 5, 5, 5, 5, 5, 5, 5, 5, 5, 5, 5, 5, 5, 5, 5, 5, 5, 5, 4, 3, 3, 3, 2, 2, 2, 2, 2, 4, 3, 3, 3, 3, 3, 3, 3, 3, 2, 2, 2, 2, 2, 2, 2, 2, 2, 3, 3, 3, 2, 2, 2, 2, 1, 1, 4, 4, 4, 3, 3, 2, 2, 1, 1, 5, 4, 4, 4, 4, 3, 3, 3, 3, 3, 3, 3, 3, 3, 3, 3, 3, 3, 2, 2, 2, 2, 2, 2, 2, 2, 2, 5, 4, 4, 4, 4, 4, 4, 4, 4, 5, 4, 3, 3, 2, 2, 2, 1, 1, 4, 4, 4, 4, 4, 4, 4, 4, 4, 5, 4, 4, 4, 4, 4, 4, 4, 4, 4, 3, 3, 3, 3, 2, 2, 2, 2, 4, 4, 4, 4, 4, 4, 4, 4, 4, 5, 4, 4, 4, 4, 4, 4, 4, 4, 3, 3, 3, 3, 2, 2, 2, 2, 2, 3, 2, 2, 2, 1, 1, 1, 1, 1, 3, 3, 3, 3, 3, 3, 3, 3, 3, 4, 3, 3, 2, 2, 2, 2, 1, 1, 5, 4, 4, 4, 4, 4, 4, 4, 4, 3, 3, 3, 3, 3, 3, 3, 3, 3, 2, 2, 2, 2, 2, 2, 2, 2, 2, 4, 4, 4, 4, 3, 3, 3, 3, 3, 2, 1, 1, 1, 1, 1, 1, 1, 1, 4, 4, 3, 3, 3, 2, 2, 1, 1, 3, 2, 2, 2, 2, 1, 1, 1, 1, 5, 5, 5, 5, 5, 5, 5, 5, 5, 3, 3, 3, 3, 3, 3, 3, 3, 3, 5, 4, 4, 4, 3, 3, 3, 3, 3, 5, 4, 4, 3, 3, 2, 1, 1, 1, 3, 3, 3, 3, 3, 3, 3, 3, 3, 5, 4, 4, 4, 4, 4, 4, 4, 4, 3, 2, 2, 2, 1, 1, 1, 1, 1, 4, 3, 3, 2, 2, 2, 1, 1, 1, 5, 4, 4, 4, 3, 3, 3, 3, 3, 5, 4, 3, 3, 3, 2, 2, 1, 1, 1, 1, 1, 1, 1, 1, 1, 1, 1, 3, 3, 3, 3, 2, 2, 2, 2, 2, 4, 4, 4, 4, 4, 4, 4, 4, 4, 2, 2, 2, 2, 2, 2, 2, 2, 2, 4, 3, 3, 3, 2, 2, 2, 1, 1, 1, 1, 1, 1, 1, 1, 1, 1, 1, 1, 1, 1, 1, 1, 1, 1, 1, 1, 2, 2, 2, 2, 2, 2, 2, 2, 2, 2, 1, 1, 1, 1, 1, 1, 1, 1
 |10, 10, 9, 7, 6, 5, 4, 4, 3, 27, 26, 25, 24, 24, 21, 21, 19, 18, 24, 24, 22, 19, 16, 16, 13, 10, 8, 23, 23, 19, 18, 15, 11, 8, 8, 4, 28, 24, 23, 22, 21, 20, 17, 15, 15, 26, 24, 22, 20, 19, 18, 17, 15, 12, 18, 15, 15, 13, 12, 10, 7, 7, 5, 20, 17, 15, 14, 13, 11, 10, 7, 7, 26, 26, 24, 23, 23, 22, 21, 20, 19, 27, 25, 25, 23, 21, 21, 19, 19, 17, 27, 27, 27, 27, 27, 27, 27, 27, 27, 27, 26, 24, 21, 19, 18, 15, 13, 12, 9, 8, 7, 7, 6, 5, 4, 2, 1, 6, 5, 4, 3, 3, 2, 2, 1, 1, 27, 27, 27, 27, 26, 26, 26, 25, 25, 27, 27, 24, 23, 21, 20, 20, 17, 16, 25, 24, 23, 22, 19, 19, 18, 16, 16, 30, 25, 25, 22, 20, 18, 15, 14, 11, 13, 12, 12, 12, 12, 12, 12, 12, 12, 11, 10, 10, 9, 7, 6, 5, 4, 4, 20, 17, 17, 15, 11, 11, 9, 7, 3, 29, 25, 23, 17, 17, 14, 9, 7, 2, 27, 23, 22, 19, 16, 14, 13, 10, 9, 7, 7, 6, 5, 4, 4, 4, 2, 2, 24, 24, 24, 24, 24, 23, 23, 23, 23, 17, 16, 14, 12, 11, 11, 8, 6, 5, 26, 22, 18, 16, 12, 12, 9, 5, 1, 12, 10, 8, 8, 6, 6, 4, 3, 2, 22, 21, 20, 19, 19, 18, 17, 17, 16, 19, 18, 18, 17, 15, 13, 12, 10, 9, 24, 21, 19, 17, 13, 12, 10, 7, 4, 23, 23, 23, 22, 21, 21, 20, 20, 20, 16, 16, 14, 14, 12, 12, 10, 9, 9, 27, 22, 20, 16, 14, 13, 9, 6, 4, 22, 21, 21, 21, 21, 20, 20, 20, 20, 30, 28, 26, 22, 21, 20, 16, 15, 14, 23, 23, 22, 21, 19, 19, 18, 16, 16, 9, 9, 9, 9, 9, 9, 9, 9, 9, 13, 13, 12, 11, 11, 11, 10, 10, 9, 21, 19, 18, 17, 15, 14, 13, 10, 10, 14, 13, 13, 13, 13, 12, 12, 12, 12, 20, 19, 19, 19, 18, 18, 17, 16, 16, 11, 11, 10, 9, 9, 8, 8, 8, 7, 23, 23, 21, 19, 19, 17, 15, 14, 14, 4, 3, 3, 3, 3, 3, 3, 3, 3, 13, 12, 11, 10, 8, 7, 6, 5, 4, 25, 25, 24, 23, 22, 21, 20, 18, 18, 3, 2, 2, 2, 2, 2, 2, 2, 2, 21, 17, 14, 14, 11, 10, 8, 6, 4, 23, 21, 18, 17, 15, 14, 13, 11, 10, 12, 11, 11, 11, 10, 10, 10, 10, 10, 24, 23, 22, 21, 18, 18, 16, 15, 14, 11, 9, 9, 8, 7, 7, 7, 6, 5, 21, 20, 19, 19, 18, 17, 16, 16, 15, 26, 23, 20, 17, 14, 13, 9, 7, 4, 13, 12, 10, 9, 9, 6, 5, 4, 4, 26, 24, 24, 23, 22, 22, 21, 21, 20, 22, 20, 20, 17, 17, 15, 15, 12, 11, 11, 11, 10, 8, 6, 6, 3, 2, 2, 30, 28, 28, 27, 26, 26, 24, 23, 23, 13, 12, 12, 11, 11, 10, 10, 9, 9, 9, 8, 7, 7, 6, 5, 5, 5, 4, 25, 24, 18, 18, 14, 12, 9, 6, 1, 26, 25, 25, 25, 24, 24, 23, 23, 23, 29, 28, 28, 27, 26, 26, 25, 25, 25, 25, 21, 20, 19, 16, 15, 11, 10, 9, 17, 15, 14, 14, 13, 11, 11, 10, 9, 25, 25, 25, 24, 23, 23, 23, 22, 22, 22, 20, 19, 16, 15, 14, 12, 10, 9, 12, 10, 10, 10, 9, 8, 7, 6, 6, 29, 25, 24, 20, 18, 17, 13, 10, 7, 27, 26, 26, 26, 26, 25, 25, 25, 25, 24, 24, 24, 24, 24, 24, 24, 24, 24, 27, 24, 22, 21, 18, 16, 14, 13, 9, 12, 11, 11, 11, 11, 11, 11, 11, 11, 30, 29, 29, 29, 28, 28, 28, 28, 28, 24, 24, 20, 19, 16, 15, 12, 12, 10, 23, 22, 21, 21, 18, 17, 17, 15, 14, 26, 25, 24, 23, 22, 22, 20, 19, 19, 16, 14, 14, 13, 13, 13, 12, 12, 11, 27, 27, 25, 24, 23, 22, 21, 21, 20, 26, 25, 24, 22, 19, 15, 12, 12, 8, 19, 18, 18, 17, 15, 14, 13, 11, 10, 20, 19, 17, 16, 13, 13, 10, 10, 8, 24, 24, 23, 23, 22, 21, 20, 19, 19, 20, 19, 15, 13, 13, 10, 7, 4, 3, 28, 28, 27, 26, 24, 23, 21, 19, 18, 15, 14, 14, 14, 13, 13, 13, 13, 13, 27, 24, 23, 19, 17, 13, 12, 9, 5, 30, 27, 26, 25, 22, 21, 19, 17, 16, 21, 20, 19, 18, 17, 17, 15, 14, 14, 23, 22, 21, 20, 19, 18, 17, 17, 16, 14, 13, 12, 12, 10, 9, 9, 7, 7, 19, 18, 18, 18, 18, 18, 18, 18, 18, 27, 27, 25, 25, 24, 22, 21, 21, 20, 19, 18, 16, 14, 11, 10, 8, 5, 5, 3, 2, 2, 2, 1, 1, 1, 1, 1, 25, 22, 18, 14, 14, 10, 9, 4, 2, 21, 18, 15, 14, 11, 10, 9, 7, 3, 23, 22, 21, 17, 17, 16, 13, 11, 9
 |3, 3, 3, 3, 3, 3, 3, 2, 3, 26, 21, 19, 17, 15, 15, 12, 9, 8, 22, 20, 18, 17, 13, 11, 10, 5, 4, 9, 9, 9, 9, 9, 9, 9, 8, 9, 28, 24, 22, 17, 15, 10, 9, 5, 3, 19, 18, 17, 15, 14, 14, 12, 11, 11, 12, 11, 10, 10, 9, 9, 9, 8, 8, 20, 20, 20, 20, 20, 19, 19, 20, 19, 16, 16, 15, 14, 14, 13, 12, 12, 11, 14, 14, 12, 9, 9, 6, 4, 3, 1, 24, 24, 23, 22, 21, 20, 19, 17, 16, 9, 9, 9, 8, 7, 7, 6, 6, 6, 15, 14, 14, 12, 12, 11, 11, 9, 9, 29, 22, 19, 19, 14, 13, 9, 7, 3, 26, 23, 22, 20, 16, 15, 12, 10, 9, 11, 10, 10, 9, 8, 8, 7, 7, 7, 27, 26, 26, 25, 25, 25, 24, 24, 23, 22, 18, 17, 15, 14, 10, 9, 5, 5, 28, 26, 24, 22, 20, 16, 13, 11, 9, 7, 8, 7, 7, 7, 7, 7, 7, 6, 29, 25, 24, 23, 21, 18, 16, 16, 13, 16, 14, 14, 11, 10, 8, 6, 5, 4, 7, 7, 7, 7, 7, 7, 7, 7, 7, 25, 25, 25, 24, 24, 23, 22, 23, 22, 22, 21, 19, 18, 16, 15, 14, 13, 12, 7, 7, 6, 5, 5, 4, 4, 3, 3, 26, 23, 21, 19, 14, 12, 8, 6, 5, 26, 25, 23, 20, 19, 17, 17, 16, 14, 11, 11, 11, 11, 11, 10, 10, 9, 10, 15, 14, 12, 11, 10, 8, 6, 6, 5, 21, 19, 18, 16, 16, 14, 12, 11, 11, 28, 27, 24, 21, 15, 14, 9, 7, 6, 29, 27, 25, 23, 22, 20, 18, 18, 17, 21, 19, 17, 15, 13, 10, 7, 6, 5, 7, 8, 7, 7, 7, 6, 5, 6, 5, 25, 22, 21, 21, 18, 18, 15, 15, 13, 20, 18, 17, 16, 16, 14, 14, 13, 12, 20, 19, 18, 17, 16, 17, 16, 15, 14, 14, 13, 12, 11, 10, 9, 7, 6, 6, 29, 23, 20, 18, 14, 11, 10, 6, 2, 21, 21, 20, 18, 18, 17, 16, 15, 14, 19, 17, 14, 13, 12, 11, 10, 8, 7, 8, 7, 8, 8, 7, 9, 8, 7, 8, 28, 27, 25, 25, 24, 23, 22, 21, 19, 20, 18, 15, 14, 13, 11, 9, 7, 6, 19, 17, 16, 13, 11, 11, 7, 7, 5, 18, 17, 15, 15, 13, 12, 11, 9, 7, 15, 14, 13, 12, 12, 11, 10, 9, 8, 21, 17, 16, 14, 13, 10, 8, 6, 5, 26, 26, 23, 21, 20, 18, 14, 13, 12, 22, 20, 18, 16, 14, 13, 12, 10, 9, 14, 13, 13, 11, 10, 10, 9, 7, 6, 26, 25, 23, 21, 19, 18, 16, 14, 12, 23, 22, 22, 20, 20, 19, 18, 17, 17, 4, 4, 4, 4, 4, 4, 4, 4, 4, 12, 10, 8, 8, 6, 5, 5, 4, 3, 26, 24, 22, 22, 17, 16, 13, 10, 8, 13, 12, 11, 11, 10, 11, 10, 10, 10, 24, 23, 24, 24, 23, 22, 23, 23, 22, 16, 14, 13, 12, 12, 11, 9, 9, 8, 28, 27, 26, 26, 24, 24, 23, 22, 21, 27, 27, 27, 26, 27, 27, 26, 25, 27, 20, 19, 16, 13, 12, 9, 9, 5, 5, 22, 22, 21, 19, 19, 18, 17, 16, 15, 29, 27, 26, 25, 23, 22, 21, 18, 17, 25, 22, 18, 16, 15, 12, 10, 5, 4, 18, 17, 15, 14, 11, 11, 7, 5, 4, 24, 21, 19, 17, 16, 16, 13, 11, 10, 21, 20, 20, 19, 18, 18, 18, 17, 16, 6, 4, 3, 2, 3, 3, 2, 2, 1, 24, 22, 22, 21, 21, 20, 20, 20, 19, 18, 18, 17, 15, 15, 14, 13, 12, 11, 24, 21, 20, 19, 18, 16, 15, 12, 11, 13, 12, 12, 11, 8, 8, 6, 6, 4, 16, 16, 15, 14, 13, 12, 11, 10, 9, 25, 25, 23, 21, 21, 20, 18, 16, 15, 15, 12, 11, 10, 9, 8, 7, 5, 4, 11, 11, 10, 8, 7, 7, 6, 4, 3, 28, 28, 27, 27, 25, 24, 25, 23, 22, 5, 5, 5, 5, 5, 4, 4, 4, 4, 27, 27, 26, 25, 25, 24, 23, 22, 22, 29, 28, 26, 25, 25, 24, 24, 22, 22, 16, 15, 14, 13, 12, 11, 11, 10, 9, 20, 19, 17, 16, 16, 15, 15, 13, 13, 26, 24, 23, 20, 18, 14, 14, 12, 9, 18, 18, 18, 18, 17, 17, 17, 17, 17, 21, 19, 18, 18, 16, 15, 15, 13, 13, 8, 9, 8, 7, 7, 6, 5, 4, 3, 17, 17, 17, 17, 16, 16, 16, 15, 15, 17, 14, 13, 12, 11, 11, 10, 9, 8, 27, 26, 23, 18, 14, 13, 8, 7, 4, 22, 22, 22, 21, 21, 21, 21, 20, 20, 24, 23, 22, 22, 21, 21, 20, 19, 18, 11, 9, 8, 7, 8, 7, 6, 5, 4, 12, 10, 9, 8, 8, 8, 7, 6, 5, 26, 24, 23, 21, 17, 15, 15, 13, 11, 16, 16, 13, 11, 10, 9, 7, 6, 5, 23, 23, 22, 20, 17, 17, 14, 14, 12, 12, 11, 11, 11, 11, 11, 11, 11, 11, 17, 17, 16, 16, 14, 14, 13, 13, 12|];